(declare-fun c_0 () Int)
(assert (and (< c_0 125) (>= c_0 0)))
(declare-fun c_1 () Int)
(assert (and (< c_1 75) (>= c_1 0)))
(declare-fun c_2 () Int)
(assert (and (< c_2 35) (>= c_2 0)))
(declare-fun c_3 () Int)
(assert (and (< c_3 125) (>= c_3 0)))
(declare-fun c_4 () Int)
(assert (and (< c_4 125) (>= c_4 0)))
(declare-fun c_5 () Int)
(assert (and (< c_5 125) (>= c_5 0)))
(declare-fun c_6 () Int)
(assert (and (< c_6 125) (>= c_6 0)))
(declare-fun c_7 () Int)
(assert (and (< c_7 500) (>= c_7 0)))
(declare-fun c_8 () Int)
(assert (and (< c_8 30) (>= c_8 0)))
(declare-fun c_9 () Int)
(assert (and (< c_9 40) (>= c_9 0)))
(declare-fun c_10 () Int)
(assert (and (< c_10 125) (>= c_10 0)))
(declare-fun c_11 () Int)
(assert (and (< c_11 30) (>= c_11 0)))
(declare-fun c_12 () Int)
(assert (and (< c_12 500) (>= c_12 0)))
(declare-fun c_13 () Int)
(assert (and (< c_13 125) (>= c_13 0)))
(declare-fun c_14 () Int)
(assert (and (< c_14 125) (>= c_14 0)))
(declare-fun c_15 () Int)
(assert (and (< c_15 125) (>= c_15 0)))
(declare-fun c_16 () Int)
(assert (and (< c_16 75) (>= c_16 0)))
(declare-fun c_17 () Int)
(assert (and (< c_17 75) (>= c_17 0)))
(declare-fun c_18 () Int)
(assert (and (< c_18 125) (>= c_18 0)))
(declare-fun c_19 () Int)
(assert (and (< c_19 125) (>= c_19 0)))
(declare-fun c_20 () Int)
(assert (and (< c_20 75) (>= c_20 0)))
(declare-fun c_21 () Int)
(assert (and (< c_21 125) (>= c_21 0)))
(declare-fun c_22 () Int)
(assert (and (< c_22 125) (>= c_22 0)))
(declare-fun c_23 () Int)
(assert (and (< c_23 35) (>= c_23 0)))
(declare-fun c_24 () Int)
(assert (and (< c_24 125) (>= c_24 0)))
(declare-fun c_25 () Int)
(assert (and (< c_25 125) (>= c_25 0)))
(declare-fun c_26 () Int)
(assert (and (< c_26 30) (>= c_26 0)))
(declare-fun c_27 () Int)
(assert (and (< c_27 125) (>= c_27 0)))
(declare-fun c_28 () Int)
(assert (and (< c_28 75) (>= c_28 0)))
(declare-fun c_29 () Int)
(assert (and (< c_29 30) (>= c_29 0)))
(declare-fun c_30 () Int)
(assert (and (< c_30 125) (>= c_30 0)))
(declare-fun c_31 () Int)
(assert (and (< c_31 35) (>= c_31 0)))
(declare-fun c_32 () Int)
(assert (and (< c_32 125) (>= c_32 0)))
(declare-fun c_33 () Int)
(assert (and (< c_33 125) (>= c_33 0)))
(declare-fun c_34 () Int)
(assert (and (< c_34 125) (>= c_34 0)))
(declare-fun c_35 () Int)
(assert (and (< c_35 125) (>= c_35 0)))
(declare-fun c_36 () Int)
(assert (and (< c_36 30) (>= c_36 0)))
(declare-fun c_37 () Int)
(assert (and (< c_37 500) (>= c_37 0)))
(declare-fun c_38 () Int)
(assert (and (< c_38 125) (>= c_38 0)))
(declare-fun c_39 () Int)
(assert (and (< c_39 75) (>= c_39 0)))
(declare-fun c_40 () Int)
(assert (and (< c_40 125) (>= c_40 0)))
(declare-fun c_41 () Int)
(assert (and (< c_41 35) (>= c_41 0)))
(declare-fun c_42 () Int)
(assert (and (< c_42 35) (>= c_42 0)))
(declare-fun c_43 () Int)
(assert (and (< c_43 35) (>= c_43 0)))
(declare-fun c_44 () Int)
(assert (and (< c_44 125) (>= c_44 0)))
(declare-fun c_45 () Int)
(assert (and (< c_45 125) (>= c_45 0)))
(assert (not (or (or (or (or (or (= c_7 c_12) (= c_7 c_37)) (= c_12 c_7)) (= c_12 c_37)) (= c_37 c_7)) (= c_37 c_12))))
(assert (not (or (or (or (or (or (or (or (or (or (or (or (or (or (or (or (or (or (or (or (or (or (or (or (or (or (or (or (or (or (= c_1 c_16) (= c_1 c_17)) (= c_1 c_20)) (= c_1 c_28)) (= c_1 c_39)) (= c_16 c_1)) (= c_16 c_17)) (= c_16 c_20)) (= c_16 c_28)) (= c_16 c_39)) (= c_17 c_1)) (= c_17 c_16)) (= c_17 c_20)) (= c_17 c_28)) (= c_17 c_39)) (= c_20 c_1)) (= c_20 c_16)) (= c_20 c_17)) (= c_20 c_28)) (= c_20 c_39)) (= c_28 c_1)) (= c_28 c_16)) (= c_28 c_17)) (= c_28 c_20)) (= c_28 c_39)) (= c_39 c_1)) (= c_39 c_16)) (= c_39 c_17)) (= c_39 c_20)) (= c_39 c_28))))
(assert (not (or (or (or (or (or (or (or (or (or (or (or (or (or (or (or (or (or (or (or (or (or (or (or (or (or (or (or (or (or (= c_2 c_23) (= c_2 c_31)) (= c_2 c_41)) (= c_2 c_42)) (= c_2 c_43)) (= c_23 c_2)) (= c_23 c_31)) (= c_23 c_41)) (= c_23 c_42)) (= c_23 c_43)) (= c_31 c_2)) (= c_31 c_23)) (= c_31 c_41)) (= c_31 c_42)) (= c_31 c_43)) (= c_41 c_2)) (= c_41 c_23)) (= c_41 c_31)) (= c_41 c_42)) (= c_41 c_43)) (= c_42 c_2)) (= c_42 c_23)) (= c_42 c_31)) (= c_42 c_41)) (= c_42 c_43)) (= c_43 c_2)) (= c_43 c_23)) (= c_43 c_31)) (= c_43 c_41)) (= c_43 c_42))))
(assert (not (or (or (or (or (or (or (or (or (or (or (or (or (or (or (or (or (or (or (or (or (or (or (or (or (or (or (or (or (or (or (or (or (or (or (or (or (or (or (or (or (or (or (or (or (or (or (or (or (or (or (or (or (or (or (or (or (or (or (or (or (or (or (or (or (or (or (or (or (or (or (or (or (or (or (or (or (or (or (or (or (or (or (or (or (or (or (or (or (or (or (or (or (or (or (or (or (or (or (or (or (or (or (or (or (or (or (or (or (or (or (or (or (or (or (or (or (or (or (or (or (or (or (or (or (or (or (or (or (or (or (or (or (or (or (or (or (or (or (or (or (or (or (or (or (or (or (or (or (or (or (or (or (or (or (or (or (or (or (or (or (or (or (or (or (or (or (or (or (or (or (or (or (or (or (or (or (or (or (or (or (or (or (or (or (or (or (or (or (or (or (or (or (or (or (or (or (or (or (or (or (or (or (or (or (or (or (or (or (or (or (or (or (or (or (or (or (or (or (or (or (or (or (or (or (or (or (or (or (or (or (or (or (or (or (or (or (or (or (or (or (or (or (or (or (or (or (or (or (or (or (or (or (or (or (or (or (or (or (or (or (or (or (or (or (or (or (or (or (or (or (or (or (or (or (or (or (or (or (or (or (or (or (or (or (or (or (or (or (or (or (or (or (or (or (or (or (or (or (or (or (or (or (or (or (or (or (or (or (or (or (or (or (or (or (or (or (or (or (or (or (or (or (or (or (or (or (or (or (or (or (or (or (or (or (or (or (or (or (or (or (or (or (or (or (or (or (or (or (or (or (or (or (or (or (or (or (or (or (or (or (or (or (or (or (or (or (or (or (or (or (or (or (or (or (or (or (or (or (or (or (or (or (or (or (or (or (or (or (or (or (or (or (or (or (or (or (or (or (or (or (or (or (or (or (or (or (or (or (or (or (or (or (or (or (or (or (or (or (or (or (or (or (or (or (or (or (or (or (or (or (or (or (or (or (or (or (or (or (or (or (or (or (or (or (or (or (or (or (or (or (or (or (or (or (or (or (or (or (or (or (or (or (or (or (or (or (or (or (or (or (or (or (or (or (or (or (or (or (or (or (or (or (or (or (or (or (or (or (or (or (or (or (or (or (or (or (or (or (or (or (or (or (or (or (or (or (or (or (or (or (or (or (or (or (or (or (or (or (or (or (or (or (or (or (or (or (or (or (or (or (or (or (or (or (or (or (or (or (or (or (or (or (or (or (or (or (or (or (or (or (or (or (or (or (or (or (or (or (or (or (or (or (or (or (or (or (or (or (or (or (or (or (or (or (or (or (or (or (or (or (or (or (or (or (or (or (or (or (or (or (or (or (or (or (or (or (or (or (or (= c_0 c_3) (= c_0 c_4)) (= c_0 c_5)) (= c_0 c_6)) (= c_0 c_10)) (= c_0 c_13)) (= c_0 c_14)) (= c_0 c_15)) (= c_0 c_18)) (= c_0 c_19)) (= c_0 c_21)) (= c_0 c_22)) (= c_0 c_24)) (= c_0 c_25)) (= c_0 c_27)) (= c_0 c_30)) (= c_0 c_32)) (= c_0 c_33)) (= c_0 c_34)) (= c_0 c_35)) (= c_0 c_38)) (= c_0 c_40)) (= c_0 c_44)) (= c_0 c_45)) (= c_3 c_0)) (= c_3 c_4)) (= c_3 c_5)) (= c_3 c_6)) (= c_3 c_10)) (= c_3 c_13)) (= c_3 c_14)) (= c_3 c_15)) (= c_3 c_18)) (= c_3 c_19)) (= c_3 c_21)) (= c_3 c_22)) (= c_3 c_24)) (= c_3 c_25)) (= c_3 c_27)) (= c_3 c_30)) (= c_3 c_32)) (= c_3 c_33)) (= c_3 c_34)) (= c_3 c_35)) (= c_3 c_38)) (= c_3 c_40)) (= c_3 c_44)) (= c_3 c_45)) (= c_4 c_0)) (= c_4 c_3)) (= c_4 c_5)) (= c_4 c_6)) (= c_4 c_10)) (= c_4 c_13)) (= c_4 c_14)) (= c_4 c_15)) (= c_4 c_18)) (= c_4 c_19)) (= c_4 c_21)) (= c_4 c_22)) (= c_4 c_24)) (= c_4 c_25)) (= c_4 c_27)) (= c_4 c_30)) (= c_4 c_32)) (= c_4 c_33)) (= c_4 c_34)) (= c_4 c_35)) (= c_4 c_38)) (= c_4 c_40)) (= c_4 c_44)) (= c_4 c_45)) (= c_5 c_0)) (= c_5 c_3)) (= c_5 c_4)) (= c_5 c_6)) (= c_5 c_10)) (= c_5 c_13)) (= c_5 c_14)) (= c_5 c_15)) (= c_5 c_18)) (= c_5 c_19)) (= c_5 c_21)) (= c_5 c_22)) (= c_5 c_24)) (= c_5 c_25)) (= c_5 c_27)) (= c_5 c_30)) (= c_5 c_32)) (= c_5 c_33)) (= c_5 c_34)) (= c_5 c_35)) (= c_5 c_38)) (= c_5 c_40)) (= c_5 c_44)) (= c_5 c_45)) (= c_6 c_0)) (= c_6 c_3)) (= c_6 c_4)) (= c_6 c_5)) (= c_6 c_10)) (= c_6 c_13)) (= c_6 c_14)) (= c_6 c_15)) (= c_6 c_18)) (= c_6 c_19)) (= c_6 c_21)) (= c_6 c_22)) (= c_6 c_24)) (= c_6 c_25)) (= c_6 c_27)) (= c_6 c_30)) (= c_6 c_32)) (= c_6 c_33)) (= c_6 c_34)) (= c_6 c_35)) (= c_6 c_38)) (= c_6 c_40)) (= c_6 c_44)) (= c_6 c_45)) (= c_10 c_0)) (= c_10 c_3)) (= c_10 c_4)) (= c_10 c_5)) (= c_10 c_6)) (= c_10 c_13)) (= c_10 c_14)) (= c_10 c_15)) (= c_10 c_18)) (= c_10 c_19)) (= c_10 c_21)) (= c_10 c_22)) (= c_10 c_24)) (= c_10 c_25)) (= c_10 c_27)) (= c_10 c_30)) (= c_10 c_32)) (= c_10 c_33)) (= c_10 c_34)) (= c_10 c_35)) (= c_10 c_38)) (= c_10 c_40)) (= c_10 c_44)) (= c_10 c_45)) (= c_13 c_0)) (= c_13 c_3)) (= c_13 c_4)) (= c_13 c_5)) (= c_13 c_6)) (= c_13 c_10)) (= c_13 c_14)) (= c_13 c_15)) (= c_13 c_18)) (= c_13 c_19)) (= c_13 c_21)) (= c_13 c_22)) (= c_13 c_24)) (= c_13 c_25)) (= c_13 c_27)) (= c_13 c_30)) (= c_13 c_32)) (= c_13 c_33)) (= c_13 c_34)) (= c_13 c_35)) (= c_13 c_38)) (= c_13 c_40)) (= c_13 c_44)) (= c_13 c_45)) (= c_14 c_0)) (= c_14 c_3)) (= c_14 c_4)) (= c_14 c_5)) (= c_14 c_6)) (= c_14 c_10)) (= c_14 c_13)) (= c_14 c_15)) (= c_14 c_18)) (= c_14 c_19)) (= c_14 c_21)) (= c_14 c_22)) (= c_14 c_24)) (= c_14 c_25)) (= c_14 c_27)) (= c_14 c_30)) (= c_14 c_32)) (= c_14 c_33)) (= c_14 c_34)) (= c_14 c_35)) (= c_14 c_38)) (= c_14 c_40)) (= c_14 c_44)) (= c_14 c_45)) (= c_15 c_0)) (= c_15 c_3)) (= c_15 c_4)) (= c_15 c_5)) (= c_15 c_6)) (= c_15 c_10)) (= c_15 c_13)) (= c_15 c_14)) (= c_15 c_18)) (= c_15 c_19)) (= c_15 c_21)) (= c_15 c_22)) (= c_15 c_24)) (= c_15 c_25)) (= c_15 c_27)) (= c_15 c_30)) (= c_15 c_32)) (= c_15 c_33)) (= c_15 c_34)) (= c_15 c_35)) (= c_15 c_38)) (= c_15 c_40)) (= c_15 c_44)) (= c_15 c_45)) (= c_18 c_0)) (= c_18 c_3)) (= c_18 c_4)) (= c_18 c_5)) (= c_18 c_6)) (= c_18 c_10)) (= c_18 c_13)) (= c_18 c_14)) (= c_18 c_15)) (= c_18 c_19)) (= c_18 c_21)) (= c_18 c_22)) (= c_18 c_24)) (= c_18 c_25)) (= c_18 c_27)) (= c_18 c_30)) (= c_18 c_32)) (= c_18 c_33)) (= c_18 c_34)) (= c_18 c_35)) (= c_18 c_38)) (= c_18 c_40)) (= c_18 c_44)) (= c_18 c_45)) (= c_19 c_0)) (= c_19 c_3)) (= c_19 c_4)) (= c_19 c_5)) (= c_19 c_6)) (= c_19 c_10)) (= c_19 c_13)) (= c_19 c_14)) (= c_19 c_15)) (= c_19 c_18)) (= c_19 c_21)) (= c_19 c_22)) (= c_19 c_24)) (= c_19 c_25)) (= c_19 c_27)) (= c_19 c_30)) (= c_19 c_32)) (= c_19 c_33)) (= c_19 c_34)) (= c_19 c_35)) (= c_19 c_38)) (= c_19 c_40)) (= c_19 c_44)) (= c_19 c_45)) (= c_21 c_0)) (= c_21 c_3)) (= c_21 c_4)) (= c_21 c_5)) (= c_21 c_6)) (= c_21 c_10)) (= c_21 c_13)) (= c_21 c_14)) (= c_21 c_15)) (= c_21 c_18)) (= c_21 c_19)) (= c_21 c_22)) (= c_21 c_24)) (= c_21 c_25)) (= c_21 c_27)) (= c_21 c_30)) (= c_21 c_32)) (= c_21 c_33)) (= c_21 c_34)) (= c_21 c_35)) (= c_21 c_38)) (= c_21 c_40)) (= c_21 c_44)) (= c_21 c_45)) (= c_22 c_0)) (= c_22 c_3)) (= c_22 c_4)) (= c_22 c_5)) (= c_22 c_6)) (= c_22 c_10)) (= c_22 c_13)) (= c_22 c_14)) (= c_22 c_15)) (= c_22 c_18)) (= c_22 c_19)) (= c_22 c_21)) (= c_22 c_24)) (= c_22 c_25)) (= c_22 c_27)) (= c_22 c_30)) (= c_22 c_32)) (= c_22 c_33)) (= c_22 c_34)) (= c_22 c_35)) (= c_22 c_38)) (= c_22 c_40)) (= c_22 c_44)) (= c_22 c_45)) (= c_24 c_0)) (= c_24 c_3)) (= c_24 c_4)) (= c_24 c_5)) (= c_24 c_6)) (= c_24 c_10)) (= c_24 c_13)) (= c_24 c_14)) (= c_24 c_15)) (= c_24 c_18)) (= c_24 c_19)) (= c_24 c_21)) (= c_24 c_22)) (= c_24 c_25)) (= c_24 c_27)) (= c_24 c_30)) (= c_24 c_32)) (= c_24 c_33)) (= c_24 c_34)) (= c_24 c_35)) (= c_24 c_38)) (= c_24 c_40)) (= c_24 c_44)) (= c_24 c_45)) (= c_25 c_0)) (= c_25 c_3)) (= c_25 c_4)) (= c_25 c_5)) (= c_25 c_6)) (= c_25 c_10)) (= c_25 c_13)) (= c_25 c_14)) (= c_25 c_15)) (= c_25 c_18)) (= c_25 c_19)) (= c_25 c_21)) (= c_25 c_22)) (= c_25 c_24)) (= c_25 c_27)) (= c_25 c_30)) (= c_25 c_32)) (= c_25 c_33)) (= c_25 c_34)) (= c_25 c_35)) (= c_25 c_38)) (= c_25 c_40)) (= c_25 c_44)) (= c_25 c_45)) (= c_27 c_0)) (= c_27 c_3)) (= c_27 c_4)) (= c_27 c_5)) (= c_27 c_6)) (= c_27 c_10)) (= c_27 c_13)) (= c_27 c_14)) (= c_27 c_15)) (= c_27 c_18)) (= c_27 c_19)) (= c_27 c_21)) (= c_27 c_22)) (= c_27 c_24)) (= c_27 c_25)) (= c_27 c_30)) (= c_27 c_32)) (= c_27 c_33)) (= c_27 c_34)) (= c_27 c_35)) (= c_27 c_38)) (= c_27 c_40)) (= c_27 c_44)) (= c_27 c_45)) (= c_30 c_0)) (= c_30 c_3)) (= c_30 c_4)) (= c_30 c_5)) (= c_30 c_6)) (= c_30 c_10)) (= c_30 c_13)) (= c_30 c_14)) (= c_30 c_15)) (= c_30 c_18)) (= c_30 c_19)) (= c_30 c_21)) (= c_30 c_22)) (= c_30 c_24)) (= c_30 c_25)) (= c_30 c_27)) (= c_30 c_32)) (= c_30 c_33)) (= c_30 c_34)) (= c_30 c_35)) (= c_30 c_38)) (= c_30 c_40)) (= c_30 c_44)) (= c_30 c_45)) (= c_32 c_0)) (= c_32 c_3)) (= c_32 c_4)) (= c_32 c_5)) (= c_32 c_6)) (= c_32 c_10)) (= c_32 c_13)) (= c_32 c_14)) (= c_32 c_15)) (= c_32 c_18)) (= c_32 c_19)) (= c_32 c_21)) (= c_32 c_22)) (= c_32 c_24)) (= c_32 c_25)) (= c_32 c_27)) (= c_32 c_30)) (= c_32 c_33)) (= c_32 c_34)) (= c_32 c_35)) (= c_32 c_38)) (= c_32 c_40)) (= c_32 c_44)) (= c_32 c_45)) (= c_33 c_0)) (= c_33 c_3)) (= c_33 c_4)) (= c_33 c_5)) (= c_33 c_6)) (= c_33 c_10)) (= c_33 c_13)) (= c_33 c_14)) (= c_33 c_15)) (= c_33 c_18)) (= c_33 c_19)) (= c_33 c_21)) (= c_33 c_22)) (= c_33 c_24)) (= c_33 c_25)) (= c_33 c_27)) (= c_33 c_30)) (= c_33 c_32)) (= c_33 c_34)) (= c_33 c_35)) (= c_33 c_38)) (= c_33 c_40)) (= c_33 c_44)) (= c_33 c_45)) (= c_34 c_0)) (= c_34 c_3)) (= c_34 c_4)) (= c_34 c_5)) (= c_34 c_6)) (= c_34 c_10)) (= c_34 c_13)) (= c_34 c_14)) (= c_34 c_15)) (= c_34 c_18)) (= c_34 c_19)) (= c_34 c_21)) (= c_34 c_22)) (= c_34 c_24)) (= c_34 c_25)) (= c_34 c_27)) (= c_34 c_30)) (= c_34 c_32)) (= c_34 c_33)) (= c_34 c_35)) (= c_34 c_38)) (= c_34 c_40)) (= c_34 c_44)) (= c_34 c_45)) (= c_35 c_0)) (= c_35 c_3)) (= c_35 c_4)) (= c_35 c_5)) (= c_35 c_6)) (= c_35 c_10)) (= c_35 c_13)) (= c_35 c_14)) (= c_35 c_15)) (= c_35 c_18)) (= c_35 c_19)) (= c_35 c_21)) (= c_35 c_22)) (= c_35 c_24)) (= c_35 c_25)) (= c_35 c_27)) (= c_35 c_30)) (= c_35 c_32)) (= c_35 c_33)) (= c_35 c_34)) (= c_35 c_38)) (= c_35 c_40)) (= c_35 c_44)) (= c_35 c_45)) (= c_38 c_0)) (= c_38 c_3)) (= c_38 c_4)) (= c_38 c_5)) (= c_38 c_6)) (= c_38 c_10)) (= c_38 c_13)) (= c_38 c_14)) (= c_38 c_15)) (= c_38 c_18)) (= c_38 c_19)) (= c_38 c_21)) (= c_38 c_22)) (= c_38 c_24)) (= c_38 c_25)) (= c_38 c_27)) (= c_38 c_30)) (= c_38 c_32)) (= c_38 c_33)) (= c_38 c_34)) (= c_38 c_35)) (= c_38 c_40)) (= c_38 c_44)) (= c_38 c_45)) (= c_40 c_0)) (= c_40 c_3)) (= c_40 c_4)) (= c_40 c_5)) (= c_40 c_6)) (= c_40 c_10)) (= c_40 c_13)) (= c_40 c_14)) (= c_40 c_15)) (= c_40 c_18)) (= c_40 c_19)) (= c_40 c_21)) (= c_40 c_22)) (= c_40 c_24)) (= c_40 c_25)) (= c_40 c_27)) (= c_40 c_30)) (= c_40 c_32)) (= c_40 c_33)) (= c_40 c_34)) (= c_40 c_35)) (= c_40 c_38)) (= c_40 c_44)) (= c_40 c_45)) (= c_44 c_0)) (= c_44 c_3)) (= c_44 c_4)) (= c_44 c_5)) (= c_44 c_6)) (= c_44 c_10)) (= c_44 c_13)) (= c_44 c_14)) (= c_44 c_15)) (= c_44 c_18)) (= c_44 c_19)) (= c_44 c_21)) (= c_44 c_22)) (= c_44 c_24)) (= c_44 c_25)) (= c_44 c_27)) (= c_44 c_30)) (= c_44 c_32)) (= c_44 c_33)) (= c_44 c_34)) (= c_44 c_35)) (= c_44 c_38)) (= c_44 c_40)) (= c_44 c_45)) (= c_45 c_0)) (= c_45 c_3)) (= c_45 c_4)) (= c_45 c_5)) (= c_45 c_6)) (= c_45 c_10)) (= c_45 c_13)) (= c_45 c_14)) (= c_45 c_15)) (= c_45 c_18)) (= c_45 c_19)) (= c_45 c_21)) (= c_45 c_22)) (= c_45 c_24)) (= c_45 c_25)) (= c_45 c_27)) (= c_45 c_30)) (= c_45 c_32)) (= c_45 c_33)) (= c_45 c_34)) (= c_45 c_35)) (= c_45 c_38)) (= c_45 c_40)) (= c_45 c_44))))
(assert (not (or (or (or (or (or (or (or (or (or (or (or (or (or (or (or (or (or (or (or (= c_8 c_11) (= c_8 c_26)) (= c_8 c_29)) (= c_8 c_36)) (= c_11 c_8)) (= c_11 c_26)) (= c_11 c_29)) (= c_11 c_36)) (= c_26 c_8)) (= c_26 c_11)) (= c_26 c_29)) (= c_26 c_36)) (= c_29 c_8)) (= c_29 c_11)) (= c_29 c_26)) (= c_29 c_36)) (= c_36 c_8)) (= c_36 c_11)) (= c_36 c_26)) (= c_36 c_29))))
(declare-fun w_0 () Int)
(declare-fun w_1 () Int)
(assert (and (and (< w_0 35) (>= w_0 0)) (and (< w_1 30) (>= w_1 0))))
(declare-fun w_2 () Int)
(assert (and (and (< w_0 35) (>= w_0 0)) (and (< w_2 75) (>= w_2 0))))
(declare-fun w_3 () Int)
(declare-fun w_4 () Int)
(assert (and (and (< w_3 30) (>= w_3 0)) (and (< w_4 35) (>= w_4 0))))
(declare-fun w_5 () Int)
(declare-fun w_6 () Int)
(assert (and (and (< w_5 125) (>= w_5 0)) (and (< w_6 35) (>= w_6 0))))
(declare-fun w_7 () Int)
(declare-fun w_8 () Int)
(assert (and (and (< w_7 35) (>= w_7 0)) (and (< w_8 40) (>= w_8 0))))
(declare-fun w_9 () Int)
(assert (and (and (< w_7 35) (>= w_7 0)) (and (< w_9 75) (>= w_9 0))))
(declare-fun w_10 () Int)
(declare-fun w_11 () Int)
(assert (and (and (< w_10 500) (>= w_10 0)) (and (< w_11 30) (>= w_11 0))))
(declare-fun w_12 () Int)
(declare-fun w_13 () Int)
(assert (and (and (< w_12 125) (>= w_12 0)) (and (< w_13 35) (>= w_13 0))))
(declare-fun w_14 () Int)
(declare-fun w_15 () Int)
(assert (and (and (< w_14 125) (>= w_14 0)) (and (< w_15 35) (>= w_15 0))))
(declare-fun w_16 () Int)
(declare-fun w_17 () Int)
(assert (and (and (< w_16 125) (>= w_16 0)) (and (< w_17 35) (>= w_17 0))))
(declare-fun w_18 () Int)
(declare-fun w_19 () Int)
(assert (and (and (< w_18 125) (>= w_18 0)) (and (< w_19 35) (>= w_19 0))))
(declare-fun w_20 () Int)
(declare-fun w_21 () Int)
(assert (and (and (< w_20 125) (>= w_20 0)) (and (< w_21 35) (>= w_21 0))))
(declare-fun w_22 () Int)
(declare-fun w_23 () Int)
(assert (and (and (< w_22 30) (>= w_22 0)) (and (< w_23 35) (>= w_23 0))))
(declare-fun w_24 () Int)
(declare-fun w_25 () Int)
(assert (and (and (< w_24 125) (>= w_24 0)) (and (< w_25 35) (>= w_25 0))))
(declare-fun w_26 () Int)
(declare-fun w_27 () Int)
(assert (and (and (< w_26 500) (>= w_26 0)) (and (< w_27 30) (>= w_27 0))))
(declare-fun w_28 () Int)
(declare-fun w_29 () Int)
(assert (and (and (< w_28 125) (>= w_28 0)) (and (< w_29 35) (>= w_29 0))))
(declare-fun w_30 () Int)
(declare-fun w_31 () Int)
(assert (and (and (< w_30 125) (>= w_30 0)) (and (< w_31 35) (>= w_31 0))))
(declare-fun w_32 () Int)
(declare-fun w_33 () Int)
(assert (and (and (< w_32 35) (>= w_32 0)) (and (< w_33 75) (>= w_33 0))))
(declare-fun w_34 () Int)
(declare-fun w_35 () Int)
(assert (and (and (< w_34 125) (>= w_34 0)) (and (< w_35 35) (>= w_35 0))))
(declare-fun w_36 () Int)
(declare-fun w_37 () Int)
(assert (and (and (< w_36 35) (>= w_36 0)) (and (< w_37 75) (>= w_37 0))))
(declare-fun w_38 () Int)
(declare-fun w_39 () Int)
(assert (and (and (< w_38 125) (>= w_38 0)) (and (< w_39 35) (>= w_39 0))))
(declare-fun w_40 () Int)
(declare-fun w_41 () Int)
(assert (and (and (< w_40 30) (>= w_40 0)) (and (< w_41 35) (>= w_41 0))))
(declare-fun w_42 () Int)
(declare-fun w_43 () Int)
(assert (and (and (< w_42 125) (>= w_42 0)) (and (< w_43 40) (>= w_43 0))))
(declare-fun w_44 () Int)
(declare-fun w_45 () Int)
(assert (and (and (< w_44 500) (>= w_44 0)) (and (< w_45 30) (>= w_45 0))))
(declare-fun w_46 () Int)
(declare-fun w_47 () Int)
(assert (and (and (< w_46 125) (>= w_46 0)) (and (< w_47 35) (>= w_47 0))))
(declare-fun w_48 () Int)
(declare-fun w_49 () Int)
(assert (and (and (< w_48 35) (>= w_48 0)) (and (< w_49 75) (>= w_49 0))))
(declare-fun w_50 () Int)
(declare-fun w_51 () Int)
(assert (and (and (< w_50 125) (>= w_50 0)) (and (< w_51 30) (>= w_51 0))))
(declare-fun w_52 () Int)
(declare-fun w_53 () Int)
(assert (and (and (< w_52 125) (>= w_52 0)) (and (< w_53 35) (>= w_53 0))))
(declare-fun w_54 () Int)
(declare-fun w_55 () Int)
(assert (and (and (< w_54 125) (>= w_54 0)) (and (< w_55 35) (>= w_55 0))))
(declare-fun w_56 () Int)
(declare-fun w_57 () Int)
(assert (and (and (< w_56 125) (>= w_56 0)) (and (< w_57 35) (>= w_57 0))))
(declare-fun w_58 () Int)
(declare-fun w_59 () Int)
(assert (and (and (< w_58 35) (>= w_58 0)) (and (< w_59 30) (>= w_59 0))))
(declare-fun w_60 () Int)
(assert (and (and (< w_58 35) (>= w_58 0)) (and (< w_60 75) (>= w_60 0))))
(declare-fun w_61 () Int)
(declare-fun w_62 () Int)
(assert (and (and (< w_61 125) (>= w_61 0)) (and (< w_62 40) (>= w_62 0))))
(declare-fun w_63 () Int)
(declare-fun w_64 () Int)
(assert (and (and (< w_63 30) (>= w_63 0)) (and (< w_64 35) (>= w_64 0))))
(declare-fun w_65 () Int)
(declare-fun w_66 () Int)
(assert (and (and (< w_65 40) (>= w_65 0)) (and (< w_66 35) (>= w_66 0))))
(declare-fun w_67 () Int)
(declare-fun w_68 () Int)
(assert (and (and (< w_67 125) (>= w_67 0)) (and (< w_68 30) (>= w_68 0))))
(declare-fun w_69 () Int)
(declare-fun w_70 () Int)
(assert (and (and (< w_69 125) (>= w_69 0)) (and (< w_70 35) (>= w_70 0))))
(declare-fun w_71 () Int)
(declare-fun w_72 () Int)
(assert (and (and (< w_71 30) (>= w_71 0)) (and (< w_72 35) (>= w_72 0))))
(declare-fun w_73 () Int)
(declare-fun w_74 () Int)
(assert (and (and (< w_73 125) (>= w_73 0)) (and (< w_74 35) (>= w_74 0))))
(declare-fun w_75 () Int)
(declare-fun w_76 () Int)
(assert (and (and (< w_75 125) (>= w_75 0)) (and (< w_76 35) (>= w_76 0))))
(declare-fun w_77 () Int)
(declare-fun w_78 () Int)
(assert (and (and (< w_77 125) (>= w_77 0)) (and (< w_78 35) (>= w_78 0))))
(declare-fun w_79 () Int)
(declare-fun w_80 () Int)
(assert (and (and (< w_79 125) (>= w_79 0)) (and (< w_80 35) (>= w_80 0))))
(declare-fun w_81 () Int)
(declare-fun w_82 () Int)
(assert (and (and (< w_81 125) (>= w_81 0)) (and (< w_82 35) (>= w_82 0))))
(assert (or (or (or (= w_74 w_72) (= w_74 w_55)) (= w_74 w_48)) (= w_74 w_6)))
(assert (or (or (= w_65 w_62) (= w_65 w_43)) (= w_65 w_8)))
(assert (= w_45 w_40))
(assert (or (= w_71 w_59) (= w_71 w_11)))
(assert (or (or (or (= w_70 w_66) (= w_70 w_47)) (= w_70 w_32)) (= w_70 w_13)))
(assert (= w_51 w_22))
(assert (= w_63 w_27))
(assert (or (or (or (or (= w_82 w_80) (= w_82 w_78)) (= w_82 w_53)) (= w_82 w_41)) (= w_82 w_7)))
(assert (or (= w_68 w_3) (= w_68 w_1)))
(assert (or (or (or (or (= w_64 w_31) (= w_64 w_25)) (= w_64 w_21)) (= w_64 w_17)) (= w_64 w_0)))
(assert (or (or (or (= w_57 w_39) (= w_57 w_36)) (= w_57 w_29)) (= w_57 w_4)))
(assert (or (or (or (or (= w_76 w_58) (= w_76 w_35)) (= w_76 w_23)) (= w_76 w_19)) (= w_76 w_15)))
(check-sat)
(get-model)
